<?xml version="1.0" encoding="UTF-8"?><osil xmlns="os.optimizationservices.org"   xmlns:xsi="http://www.w3.org/2001/XMLSchema-instance" xsi:schemaLocation="os.optimizationservices.org http://www.optimizationservices.org/schemas/2.0/OSiL.xsd" ><instanceHeader><name>q_50_0_25_4</name></instanceHeader><instanceData><variables numberOfVariables="50"><var name="x1" ub="1"/><var name="x2" ub="1"/><var name="x3" ub="1"/><var name="x4" ub="1"/><var name="x5" ub="1"/><var name="x6" ub="1"/><var name="x7" ub="1"/><var name="x8" ub="1"/><var name="x9" ub="1"/><var name="x10" ub="1"/><var name="x11" ub="1"/><var name="x12" ub="1"/><var name="x13" ub="1"/><var name="x14" ub="1"/><var name="x15" ub="1"/><var name="x16" ub="1"/><var name="x17" ub="1"/><var name="x18" ub="1"/><var name="x19" ub="1"/><var name="x20" ub="1"/><var name="x21" ub="1"/><var name="x22" ub="1"/><var name="x23" ub="1"/><var name="x24" ub="1"/><var name="x25" ub="1"/><var name="x26" ub="1"/><var name="x27" ub="1"/><var name="x28" ub="1"/><var name="x29" ub="1"/><var name="x30" ub="1"/><var name="x31" ub="1"/><var name="x32" ub="1"/><var name="x33" ub="1"/><var name="x34" ub="1"/><var name="x35" ub="1"/><var name="x36" ub="1"/><var name="x37" ub="1"/><var name="x38" ub="1"/><var name="x39" ub="1"/><var name="x40" ub="1"/><var name="x41" ub="1"/><var name="x42" ub="1"/><var name="x43" ub="1"/><var name="x44" ub="1"/><var name="x45" ub="1"/><var name="x46" ub="1"/><var name="x47" ub="1"/><var name="x48" ub="1"/><var name="x49" ub="1"/><var name="x50" ub="1"/></variables><objectives numberOfObjectives="1"><obj maxOrMin="min" name="defObj_x51" numberOfObjCoef="50"><coef idx="0">-.4033</coef><coef idx="1">.5307</coef><coef idx="2">.8639</coef><coef idx="3">.9249</coef><coef idx="4">.5844</coef><coef idx="5">-.3302</coef><coef idx="6">-.8971</coef><coef idx="7">.9343</coef><coef idx="8">-.4812</coef><coef idx="9">-2.24e-2</coef><coef idx="10">-3.81e-2</coef><coef idx="11">-.6702</coef><coef idx="12">7.65e-2</coef><coef idx="13">-.5192</coef><coef idx="14">.15</coef><coef idx="15">.7511</coef><coef idx="16">.2959</coef><coef idx="17">.6925</coef><coef idx="18">-.7939</coef><coef idx="19">-.4419</coef><coef idx="20">-.4714</coef><coef idx="21">1.46e-2</coef><coef idx="22">.9626</coef><coef idx="23">5.41e-2</coef><coef idx="24">-.7318</coef><coef idx="25">-.6666</coef><coef idx="26">.6844</coef><coef idx="27">.2667</coef><coef idx="28">.9428</coef><coef idx="29">-.8373</coef><coef idx="30">.1923</coef><coef idx="31">.9925</coef><coef idx="32">-.9806</coef><coef idx="33">-.9013</coef><coef idx="34">-.7989</coef><coef idx="35">.959</coef><coef idx="36">.6824</coef><coef idx="37">-9.39e-2</coef><coef idx="38">.9649</coef><coef idx="39">.887</coef><coef idx="40">.1799</coef><coef idx="41">-.3306</coef><coef idx="42">.3269</coef><coef idx="43">.5563</coef><coef idx="44">4.27e-2</coef><coef idx="45">-.5169</coef><coef idx="46">-.1694</coef><coef idx="47">-.8772</coef><coef idx="48">-.6835</coef><coef idx="49">3.61e-2</coef></obj></objectives><quadraticCoefficients  numberOfQuadraticTerms="318" ><qTerm  idx="-1"  idxOne="0"  idxTwo="1"  coef="-.7074"/><qTerm  idx="-1"  idxOne="0"  idxTwo="3"  coef="-1.3306"/><qTerm  idx="-1"  idxOne="0"  idxTwo="4"  coef="-.4399"/><qTerm  idx="-1"  idxOne="0"  idxTwo="11"  coef="-.1546"/><qTerm  idx="-1"  idxOne="0"  idxTwo="17"  coef="-5.74e-2"/><qTerm  idx="-1"  idxOne="0"  idxTwo="22"  coef="-.3642"/><qTerm  idx="-1"  idxOne="0"  idxTwo="25"  coef="-.8782"/><qTerm  idx="-1"  idxOne="0"  idxTwo="29"  coef="-1.0734"/><qTerm  idx="-1"  idxOne="0"  idxTwo="35"  coef="-.7741"/><qTerm  idx="-1"  idxOne="0"  idxTwo="42"  coef="-1.4925"/><qTerm  idx="-1"  idxOne="1"  idxTwo="2"  coef="1.8512"/><qTerm  idx="-1"  idxOne="1"  idxTwo="3"  coef="-1.2107"/><qTerm  idx="-1"  idxOne="1"  idxTwo="7"  coef="1.9748"/><qTerm  idx="-1"  idxOne="1"  idxTwo="13"  coef="-.9784"/><qTerm  idx="-1"  idxOne="1"  idxTwo="14"  coef="-.1821"/><qTerm  idx="-1"  idxOne="1"  idxTwo="19"  coef="-.3671"/><qTerm  idx="-1"  idxOne="1"  idxTwo="25"  coef="-1.4745"/><qTerm  idx="-1"  idxOne="1"  idxTwo="27"  coef=".1984"/><qTerm  idx="-1"  idxOne="1"  idxTwo="36"  coef="1.1149"/><qTerm  idx="-1"  idxOne="1"  idxTwo="44"  coef="-7.1e-3"/><qTerm  idx="-1"  idxOne="1"  idxTwo="47"  coef="1.7805"/><qTerm  idx="-1"  idxOne="1"  idxTwo="49"  coef="1.7582"/><qTerm  idx="-1"  idxOne="2"  idxTwo="2"  coef="-.5981"/><qTerm  idx="-1"  idxOne="2"  idxTwo="8"  coef="1.7923"/><qTerm  idx="-1"  idxOne="2"  idxTwo="13"  coef="-.2227"/><qTerm  idx="-1"  idxOne="2"  idxTwo="22"  coef="-.5239"/><qTerm  idx="-1"  idxOne="2"  idxTwo="23"  coef="1.7153"/><qTerm  idx="-1"  idxOne="2"  idxTwo="25"  coef="-.7635"/><qTerm  idx="-1"  idxOne="2"  idxTwo="32"  coef="-.2939"/><qTerm  idx="-1"  idxOne="2"  idxTwo="35"  coef="-4.85e-2"/><qTerm  idx="-1"  idxOne="2"  idxTwo="40"  coef="1.8242"/><qTerm  idx="-1"  idxOne="2"  idxTwo="44"  coef="-1.705"/><qTerm  idx="-1"  idxOne="3"  idxTwo="11"  coef=".977"/><qTerm  idx="-1"  idxOne="3"  idxTwo="16"  coef="-.2743"/><qTerm  idx="-1"  idxOne="3"  idxTwo="18"  coef="-1.0688"/><qTerm  idx="-1"  idxOne="3"  idxTwo="20"  coef="-1.2994"/><qTerm  idx="-1"  idxOne="3"  idxTwo="23"  coef="-1.6539"/><qTerm  idx="-1"  idxOne="3"  idxTwo="29"  coef="-.7941"/><qTerm  idx="-1"  idxOne="3"  idxTwo="30"  coef="-.9508"/><qTerm  idx="-1"  idxOne="3"  idxTwo="39"  coef="-1.1817"/><qTerm  idx="-1"  idxOne="3"  idxTwo="41"  coef="-1.1527"/><qTerm  idx="-1"  idxOne="3"  idxTwo="42"  coef="-1.7019"/><qTerm  idx="-1"  idxOne="3"  idxTwo="43"  coef="-1.9034"/><qTerm  idx="-1"  idxOne="4"  idxTwo="5"  coef="-.9652"/><qTerm  idx="-1"  idxOne="4"  idxTwo="6"  coef=".1117"/><qTerm  idx="-1"  idxOne="4"  idxTwo="16"  coef="1.8087"/><qTerm  idx="-1"  idxOne="4"  idxTwo="19"  coef="-1.7721"/><qTerm  idx="-1"  idxOne="4"  idxTwo="34"  coef=".29"/><qTerm  idx="-1"  idxOne="4"  idxTwo="37"  coef="1.4635"/><qTerm  idx="-1"  idxOne="4"  idxTwo="40"  coef="1.1088"/><qTerm  idx="-1"  idxOne="4"  idxTwo="43"  coef=".4597"/><qTerm  idx="-1"  idxOne="4"  idxTwo="44"  coef="-1.3468"/><qTerm  idx="-1"  idxOne="4"  idxTwo="45"  coef=".6736"/><qTerm  idx="-1"  idxOne="4"  idxTwo="46"  coef="-1.1766"/><qTerm  idx="-1"  idxOne="4"  idxTwo="47"  coef="-1.8326"/><qTerm  idx="-1"  idxOne="5"  idxTwo="6"  coef="-.8784"/><qTerm  idx="-1"  idxOne="5"  idxTwo="9"  coef="1.1828"/><qTerm  idx="-1"  idxOne="5"  idxTwo="10"  coef="1.5587"/><qTerm  idx="-1"  idxOne="5"  idxTwo="11"  coef=".3386"/><qTerm  idx="-1"  idxOne="5"  idxTwo="12"  coef="-1.089"/><qTerm  idx="-1"  idxOne="5"  idxTwo="13"  coef="1.7787"/><qTerm  idx="-1"  idxOne="5"  idxTwo="16"  coef="-1.7085"/><qTerm  idx="-1"  idxOne="5"  idxTwo="17"  coef="-.7608"/><qTerm  idx="-1"  idxOne="5"  idxTwo="26"  coef="-.1017"/><qTerm  idx="-1"  idxOne="5"  idxTwo="27"  coef="1.4323"/><qTerm  idx="-1"  idxOne="5"  idxTwo="29"  coef="1.503"/><qTerm  idx="-1"  idxOne="5"  idxTwo="43"  coef="-1.7457"/><qTerm  idx="-1"  idxOne="5"  idxTwo="46"  coef="1.8708"/><qTerm  idx="-1"  idxOne="5"  idxTwo="48"  coef="-1.8046"/><qTerm  idx="-1"  idxOne="6"  idxTwo="7"  coef="-1.5488"/><qTerm  idx="-1"  idxOne="6"  idxTwo="20"  coef="1.8675"/><qTerm  idx="-1"  idxOne="6"  idxTwo="22"  coef="-1.8787"/><qTerm  idx="-1"  idxOne="6"  idxTwo="25"  coef=".6077"/><qTerm  idx="-1"  idxOne="6"  idxTwo="32"  coef="-.8494"/><qTerm  idx="-1"  idxOne="6"  idxTwo="33"  coef="1.4856"/><qTerm  idx="-1"  idxOne="6"  idxTwo="36"  coef="-.7356"/><qTerm  idx="-1"  idxOne="6"  idxTwo="39"  coef="1.0014"/><qTerm  idx="-1"  idxOne="6"  idxTwo="40"  coef="-1.5875"/><qTerm  idx="-1"  idxOne="6"  idxTwo="43"  coef="-.7003"/><qTerm  idx="-1"  idxOne="6"  idxTwo="45"  coef="1.1649"/><qTerm  idx="-1"  idxOne="7"  idxTwo="7"  coef="-.6876"/><qTerm  idx="-1"  idxOne="7"  idxTwo="13"  coef="1.367"/><qTerm  idx="-1"  idxOne="7"  idxTwo="14"  coef="1.4282"/><qTerm  idx="-1"  idxOne="7"  idxTwo="22"  coef=".8095"/><qTerm  idx="-1"  idxOne="7"  idxTwo="30"  coef=".3229"/><qTerm  idx="-1"  idxOne="7"  idxTwo="34"  coef="-8.1e-2"/><qTerm  idx="-1"  idxOne="7"  idxTwo="40"  coef="-.6565"/><qTerm  idx="-1"  idxOne="7"  idxTwo="41"  coef="1.4986"/><qTerm  idx="-1"  idxOne="7"  idxTwo="42"  coef="-1.41e-2"/><qTerm  idx="-1"  idxOne="8"  idxTwo="14"  coef=".163"/><qTerm  idx="-1"  idxOne="8"  idxTwo="17"  coef="-1.012"/><qTerm  idx="-1"  idxOne="8"  idxTwo="24"  coef="-1.5518"/><qTerm  idx="-1"  idxOne="8"  idxTwo="25"  coef="1.9585"/><qTerm  idx="-1"  idxOne="8"  idxTwo="27"  coef="-.9428"/><qTerm  idx="-1"  idxOne="8"  idxTwo="29"  coef=".6235"/><qTerm  idx="-1"  idxOne="8"  idxTwo="30"  coef="-.6893"/><qTerm  idx="-1"  idxOne="8"  idxTwo="31"  coef="-.4225"/><qTerm  idx="-1"  idxOne="8"  idxTwo="32"  coef="1.9186"/><qTerm  idx="-1"  idxOne="8"  idxTwo="40"  coef="-1.4873"/><qTerm  idx="-1"  idxOne="8"  idxTwo="42"  coef="-1.4872"/><qTerm  idx="-1"  idxOne="8"  idxTwo="45"  coef="-1.01"/><qTerm  idx="-1"  idxOne="8"  idxTwo="46"  coef="3.5e-2"/><qTerm  idx="-1"  idxOne="9"  idxTwo="12"  coef="-1.6299"/><qTerm  idx="-1"  idxOne="9"  idxTwo="14"  coef=".2958"/><qTerm  idx="-1"  idxOne="9"  idxTwo="17"  coef="-1.7113"/><qTerm  idx="-1"  idxOne="9"  idxTwo="20"  coef=".9548"/><qTerm  idx="-1"  idxOne="9"  idxTwo="24"  coef="-.6113"/><qTerm  idx="-1"  idxOne="9"  idxTwo="27"  coef="-.8107"/><qTerm  idx="-1"  idxOne="9"  idxTwo="32"  coef="-1.2953"/><qTerm  idx="-1"  idxOne="9"  idxTwo="35"  coef="1.5389"/><qTerm  idx="-1"  idxOne="9"  idxTwo="36"  coef="-.5901"/><qTerm  idx="-1"  idxOne="9"  idxTwo="38"  coef="-.1357"/><qTerm  idx="-1"  idxOne="9"  idxTwo="40"  coef="-7.62e-2"/><qTerm  idx="-1"  idxOne="9"  idxTwo="42"  coef="1.7261"/><qTerm  idx="-1"  idxOne="9"  idxTwo="44"  coef="4.05e-2"/><qTerm  idx="-1"  idxOne="9"  idxTwo="49"  coef="-.6393"/><qTerm  idx="-1"  idxOne="10"  idxTwo="10"  coef="-1.2954"/><qTerm  idx="-1"  idxOne="10"  idxTwo="11"  coef=".8215"/><qTerm  idx="-1"  idxOne="10"  idxTwo="17"  coef="1.4225"/><qTerm  idx="-1"  idxOne="10"  idxTwo="18"  coef=".7242"/><qTerm  idx="-1"  idxOne="10"  idxTwo="20"  coef=".8636"/><qTerm  idx="-1"  idxOne="10"  idxTwo="33"  coef="-.8475"/><qTerm  idx="-1"  idxOne="10"  idxTwo="37"  coef="-1.2306"/><qTerm  idx="-1"  idxOne="10"  idxTwo="39"  coef="-.5994"/><qTerm  idx="-1"  idxOne="10"  idxTwo="40"  coef=".2231"/><qTerm  idx="-1"  idxOne="10"  idxTwo="41"  coef="1.0982"/><qTerm  idx="-1"  idxOne="10"  idxTwo="47"  coef=".4541"/><qTerm  idx="-1"  idxOne="11"  idxTwo="12"  coef="-.4756"/><qTerm  idx="-1"  idxOne="11"  idxTwo="17"  coef="-1.8797"/><qTerm  idx="-1"  idxOne="11"  idxTwo="22"  coef="1.3133"/><qTerm  idx="-1"  idxOne="11"  idxTwo="23"  coef="-1.9146"/><qTerm  idx="-1"  idxOne="11"  idxTwo="25"  coef="-.4876"/><qTerm  idx="-1"  idxOne="11"  idxTwo="39"  coef="-1.5055"/><qTerm  idx="-1"  idxOne="11"  idxTwo="46"  coef="-.4017"/><qTerm  idx="-1"  idxOne="11"  idxTwo="47"  coef="1.1215"/><qTerm  idx="-1"  idxOne="12"  idxTwo="12"  coef="-.3044"/><qTerm  idx="-1"  idxOne="12"  idxTwo="14"  coef="1.7304"/><qTerm  idx="-1"  idxOne="12"  idxTwo="17"  coef=".8271"/><qTerm  idx="-1"  idxOne="12"  idxTwo="20"  coef="-1.322"/><qTerm  idx="-1"  idxOne="12"  idxTwo="21"  coef="-.4067"/><qTerm  idx="-1"  idxOne="12"  idxTwo="25"  coef="-1.9358"/><qTerm  idx="-1"  idxOne="12"  idxTwo="32"  coef="-1.4952"/><qTerm  idx="-1"  idxOne="12"  idxTwo="38"  coef=".5378"/><qTerm  idx="-1"  idxOne="12"  idxTwo="43"  coef="-1.3704"/><qTerm  idx="-1"  idxOne="13"  idxTwo="24"  coef=".675"/><qTerm  idx="-1"  idxOne="13"  idxTwo="27"  coef=".8596"/><qTerm  idx="-1"  idxOne="13"  idxTwo="28"  coef="8.56e-2"/><qTerm  idx="-1"  idxOne="13"  idxTwo="34"  coef="-.4968"/><qTerm  idx="-1"  idxOne="13"  idxTwo="36"  coef="-1.128"/><qTerm  idx="-1"  idxOne="13"  idxTwo="41"  coef="-.8447"/><qTerm  idx="-1"  idxOne="13"  idxTwo="44"  coef="-1.0404"/><qTerm  idx="-1"  idxOne="14"  idxTwo="15"  coef="-1.0382"/><qTerm  idx="-1"  idxOne="14"  idxTwo="30"  coef="1.5276"/><qTerm  idx="-1"  idxOne="14"  idxTwo="31"  coef="-1.7792"/><qTerm  idx="-1"  idxOne="14"  idxTwo="33"  coef="1.7118"/><qTerm  idx="-1"  idxOne="14"  idxTwo="37"  coef="-.3088"/><qTerm  idx="-1"  idxOne="14"  idxTwo="39"  coef="-.4968"/><qTerm  idx="-1"  idxOne="14"  idxTwo="46"  coef=".9048"/><qTerm  idx="-1"  idxOne="15"  idxTwo="25"  coef="1.404"/><qTerm  idx="-1"  idxOne="15"  idxTwo="35"  coef="-1.5213"/><qTerm  idx="-1"  idxOne="15"  idxTwo="41"  coef="-.8949"/><qTerm  idx="-1"  idxOne="15"  idxTwo="43"  coef="-.9529"/><qTerm  idx="-1"  idxOne="16"  idxTwo="16"  coef="-.8654"/><qTerm  idx="-1"  idxOne="16"  idxTwo="18"  coef="-1.4461"/><qTerm  idx="-1"  idxOne="16"  idxTwo="20"  coef="1.399"/><qTerm  idx="-1"  idxOne="16"  idxTwo="22"  coef="1.808"/><qTerm  idx="-1"  idxOne="16"  idxTwo="26"  coef="1.7693"/><qTerm  idx="-1"  idxOne="16"  idxTwo="29"  coef=".6992"/><qTerm  idx="-1"  idxOne="16"  idxTwo="46"  coef=".13"/><qTerm  idx="-1"  idxOne="16"  idxTwo="47"  coef="-.6414"/><qTerm  idx="-1"  idxOne="17"  idxTwo="22"  coef="-.7607"/><qTerm  idx="-1"  idxOne="17"  idxTwo="24"  coef="-.4231"/><qTerm  idx="-1"  idxOne="17"  idxTwo="25"  coef=".7979"/><qTerm  idx="-1"  idxOne="17"  idxTwo="26"  coef="-1.7971"/><qTerm  idx="-1"  idxOne="17"  idxTwo="29"  coef=".4001"/><qTerm  idx="-1"  idxOne="17"  idxTwo="30"  coef=".1329"/><qTerm  idx="-1"  idxOne="17"  idxTwo="37"  coef="-1.5592"/><qTerm  idx="-1"  idxOne="17"  idxTwo="42"  coef="-.1813"/><qTerm  idx="-1"  idxOne="17"  idxTwo="48"  coef="1.8711"/><qTerm  idx="-1"  idxOne="17"  idxTwo="49"  coef="-1.2212"/><qTerm  idx="-1"  idxOne="18"  idxTwo="23"  coef="1.9171"/><qTerm  idx="-1"  idxOne="18"  idxTwo="32"  coef="-.3128"/><qTerm  idx="-1"  idxOne="18"  idxTwo="33"  coef="-.2767"/><qTerm  idx="-1"  idxOne="18"  idxTwo="35"  coef="-.9181"/><qTerm  idx="-1"  idxOne="18"  idxTwo="36"  coef=".5365"/><qTerm  idx="-1"  idxOne="18"  idxTwo="37"  coef="-1.3095"/><qTerm  idx="-1"  idxOne="18"  idxTwo="41"  coef=".3884"/><qTerm  idx="-1"  idxOne="19"  idxTwo="21"  coef="1.3402"/><qTerm  idx="-1"  idxOne="19"  idxTwo="25"  coef="1.6054"/><qTerm  idx="-1"  idxOne="19"  idxTwo="32"  coef="-1.9586"/><qTerm  idx="-1"  idxOne="19"  idxTwo="33"  coef="-3.7e-3"/><qTerm  idx="-1"  idxOne="19"  idxTwo="34"  coef="1.7578"/><qTerm  idx="-1"  idxOne="19"  idxTwo="43"  coef="-1.3852"/><qTerm  idx="-1"  idxOne="19"  idxTwo="46"  coef="1.8506"/><qTerm  idx="-1"  idxOne="19"  idxTwo="47"  coef="-.2815"/><qTerm  idx="-1"  idxOne="20"  idxTwo="25"  coef="-1.6622"/><qTerm  idx="-1"  idxOne="20"  idxTwo="32"  coef="1.8566"/><qTerm  idx="-1"  idxOne="20"  idxTwo="40"  coef="1.6104"/><qTerm  idx="-1"  idxOne="20"  idxTwo="49"  coef="-8.06e-2"/><qTerm  idx="-1"  idxOne="21"  idxTwo="27"  coef=".5746"/><qTerm  idx="-1"  idxOne="21"  idxTwo="28"  coef="-1.0572"/><qTerm  idx="-1"  idxOne="21"  idxTwo="30"  coef="1.5017"/><qTerm  idx="-1"  idxOne="21"  idxTwo="37"  coef="-1.7774"/><qTerm  idx="-1"  idxOne="21"  idxTwo="43"  coef=".8049"/><qTerm  idx="-1"  idxOne="21"  idxTwo="46"  coef="-1.5418"/><qTerm  idx="-1"  idxOne="22"  idxTwo="25"  coef="1.9604"/><qTerm  idx="-1"  idxOne="22"  idxTwo="29"  coef="1.3232"/><qTerm  idx="-1"  idxOne="22"  idxTwo="31"  coef="-.2422"/><qTerm  idx="-1"  idxOne="22"  idxTwo="34"  coef="1.0142"/><qTerm  idx="-1"  idxOne="22"  idxTwo="36"  coef="-1.9052"/><qTerm  idx="-1"  idxOne="22"  idxTwo="38"  coef="-.8937"/><qTerm  idx="-1"  idxOne="22"  idxTwo="45"  coef="1.4345"/><qTerm  idx="-1"  idxOne="23"  idxTwo="23"  coef="-.1664"/><qTerm  idx="-1"  idxOne="23"  idxTwo="27"  coef=".7432"/><qTerm  idx="-1"  idxOne="23"  idxTwo="30"  coef="-1.2662"/><qTerm  idx="-1"  idxOne="23"  idxTwo="35"  coef=".3822"/><qTerm  idx="-1"  idxOne="23"  idxTwo="36"  coef="-.9121"/><qTerm  idx="-1"  idxOne="23"  idxTwo="39"  coef=".9263"/><qTerm  idx="-1"  idxOne="23"  idxTwo="45"  coef="1.5862"/><qTerm  idx="-1"  idxOne="23"  idxTwo="49"  coef="2.69e-2"/><qTerm  idx="-1"  idxOne="24"  idxTwo="26"  coef="7.8e-2"/><qTerm  idx="-1"  idxOne="24"  idxTwo="28"  coef=".2848"/><qTerm  idx="-1"  idxOne="24"  idxTwo="36"  coef="-.2183"/><qTerm  idx="-1"  idxOne="24"  idxTwo="38"  coef="1.7424"/><qTerm  idx="-1"  idxOne="24"  idxTwo="40"  coef="1.5767"/><qTerm  idx="-1"  idxOne="24"  idxTwo="47"  coef="1.9782"/><qTerm  idx="-1"  idxOne="25"  idxTwo="27"  coef=".2807"/><qTerm  idx="-1"  idxOne="25"  idxTwo="30"  coef=".7282"/><qTerm  idx="-1"  idxOne="25"  idxTwo="31"  coef="1.522"/><qTerm  idx="-1"  idxOne="25"  idxTwo="46"  coef="-.3077"/><qTerm  idx="-1"  idxOne="25"  idxTwo="47"  coef="-1.4524"/><qTerm  idx="-1"  idxOne="25"  idxTwo="49"  coef="1.39"/><qTerm  idx="-1"  idxOne="26"  idxTwo="30"  coef="-.3501"/><qTerm  idx="-1"  idxOne="26"  idxTwo="31"  coef=".2035"/><qTerm  idx="-1"  idxOne="26"  idxTwo="33"  coef="1.4138"/><qTerm  idx="-1"  idxOne="26"  idxTwo="40"  coef="1.8886"/><qTerm  idx="-1"  idxOne="26"  idxTwo="41"  coef="1.9431"/><qTerm  idx="-1"  idxOne="26"  idxTwo="48"  coef="-.8495"/><qTerm  idx="-1"  idxOne="27"  idxTwo="29"  coef="-.1795"/><qTerm  idx="-1"  idxOne="27"  idxTwo="30"  coef="-1.4e-3"/><qTerm  idx="-1"  idxOne="27"  idxTwo="32"  coef=".434"/><qTerm  idx="-1"  idxOne="27"  idxTwo="33"  coef=".3209"/><qTerm  idx="-1"  idxOne="27"  idxTwo="41"  coef="-1.7018"/><qTerm  idx="-1"  idxOne="27"  idxTwo="43"  coef="-1.0642"/><qTerm  idx="-1"  idxOne="27"  idxTwo="47"  coef="-1.337"/><qTerm  idx="-1"  idxOne="28"  idxTwo="39"  coef=".1897"/><qTerm  idx="-1"  idxOne="28"  idxTwo="41"  coef=".5279"/><qTerm  idx="-1"  idxOne="28"  idxTwo="42"  coef=".3559"/><qTerm  idx="-1"  idxOne="28"  idxTwo="45"  coef="-.5219"/><qTerm  idx="-1"  idxOne="28"  idxTwo="48"  coef="-1.1306"/><qTerm  idx="-1"  idxOne="28"  idxTwo="49"  coef="-.2878"/><qTerm  idx="-1"  idxOne="29"  idxTwo="31"  coef="-.2944"/><qTerm  idx="-1"  idxOne="29"  idxTwo="32"  coef=".3134"/><qTerm  idx="-1"  idxOne="29"  idxTwo="36"  coef="-.4454"/><qTerm  idx="-1"  idxOne="29"  idxTwo="39"  coef=".1757"/><qTerm  idx="-1"  idxOne="29"  idxTwo="43"  coef="-.6434"/><qTerm  idx="-1"  idxOne="29"  idxTwo="44"  coef="1.146"/><qTerm  idx="-1"  idxOne="30"  idxTwo="32"  coef="-1.3706"/><qTerm  idx="-1"  idxOne="30"  idxTwo="34"  coef=".7391"/><qTerm  idx="-1"  idxOne="30"  idxTwo="38"  coef="-1.188"/><qTerm  idx="-1"  idxOne="30"  idxTwo="43"  coef=".1687"/><qTerm  idx="-1"  idxOne="30"  idxTwo="44"  coef="-.3753"/><qTerm  idx="-1"  idxOne="30"  idxTwo="45"  coef="-.5599"/><qTerm  idx="-1"  idxOne="30"  idxTwo="47"  coef="-1.7822"/><qTerm  idx="-1"  idxOne="31"  idxTwo="34"  coef=".581"/><qTerm  idx="-1"  idxOne="31"  idxTwo="40"  coef="1.6224"/><qTerm  idx="-1"  idxOne="31"  idxTwo="41"  coef="-1.4367"/><qTerm  idx="-1"  idxOne="31"  idxTwo="43"  coef="-.6358"/><qTerm  idx="-1"  idxOne="31"  idxTwo="45"  coef="-.7907"/><qTerm  idx="-1"  idxOne="31"  idxTwo="47"  coef="-2.85e-2"/><qTerm  idx="-1"  idxOne="32"  idxTwo="34"  coef="-.6387"/><qTerm  idx="-1"  idxOne="32"  idxTwo="35"  coef=".9929"/><qTerm  idx="-1"  idxOne="32"  idxTwo="36"  coef="1.3018"/><qTerm  idx="-1"  idxOne="32"  idxTwo="37"  coef=".9227"/><qTerm  idx="-1"  idxOne="32"  idxTwo="41"  coef="-1.3805"/><qTerm  idx="-1"  idxOne="32"  idxTwo="42"  coef="-1.7371"/><qTerm  idx="-1"  idxOne="32"  idxTwo="43"  coef="-1.309"/><qTerm  idx="-1"  idxOne="33"  idxTwo="33"  coef=".5831"/><qTerm  idx="-1"  idxOne="33"  idxTwo="34"  coef="-1.5156"/><qTerm  idx="-1"  idxOne="33"  idxTwo="41"  coef=".5338"/><qTerm  idx="-1"  idxOne="33"  idxTwo="43"  coef="1.3155"/><qTerm  idx="-1"  idxOne="33"  idxTwo="44"  coef="-1.838"/><qTerm  idx="-1"  idxOne="33"  idxTwo="47"  coef="-1.8253"/><qTerm  idx="-1"  idxOne="34"  idxTwo="34"  coef="-.984"/><qTerm  idx="-1"  idxOne="34"  idxTwo="42"  coef="-1.3588"/><qTerm  idx="-1"  idxOne="34"  idxTwo="48"  coef="-1.8303"/><qTerm  idx="-1"  idxOne="35"  idxTwo="36"  coef=".7104"/><qTerm  idx="-1"  idxOne="35"  idxTwo="38"  coef="-1.4777"/><qTerm  idx="-1"  idxOne="35"  idxTwo="40"  coef="-1.6428"/><qTerm  idx="-1"  idxOne="35"  idxTwo="41"  coef=".2399"/><qTerm  idx="-1"  idxOne="35"  idxTwo="43"  coef="1.4736"/><qTerm  idx="-1"  idxOne="35"  idxTwo="44"  coef="-1.3599"/><qTerm  idx="-1"  idxOne="35"  idxTwo="45"  coef="-1.4318"/><qTerm  idx="-1"  idxOne="35"  idxTwo="47"  coef=".8851"/><qTerm  idx="-1"  idxOne="36"  idxTwo="37"  coef="-1.5152"/><qTerm  idx="-1"  idxOne="36"  idxTwo="48"  coef="-1.2067"/><qTerm  idx="-1"  idxOne="36"  idxTwo="49"  coef="1.5584"/><qTerm  idx="-1"  idxOne="37"  idxTwo="38"  coef="1.0178"/><qTerm  idx="-1"  idxOne="37"  idxTwo="41"  coef=".883"/><qTerm  idx="-1"  idxOne="38"  idxTwo="40"  coef=".221"/><qTerm  idx="-1"  idxOne="38"  idxTwo="41"  coef="1.4317"/><qTerm  idx="-1"  idxOne="38"  idxTwo="42"  coef=".2338"/><qTerm  idx="-1"  idxOne="38"  idxTwo="43"  coef=".1783"/><qTerm  idx="-1"  idxOne="38"  idxTwo="45"  coef="1.8858"/><qTerm  idx="-1"  idxOne="39"  idxTwo="40"  coef="-.2597"/><qTerm  idx="-1"  idxOne="39"  idxTwo="41"  coef="-.7306"/><qTerm  idx="-1"  idxOne="39"  idxTwo="42"  coef="-.6684"/><qTerm  idx="-1"  idxOne="39"  idxTwo="45"  coef="1.7288"/><qTerm  idx="-1"  idxOne="39"  idxTwo="46"  coef="-1.1411"/><qTerm  idx="-1"  idxOne="39"  idxTwo="47"  coef=".7562"/><qTerm  idx="-1"  idxOne="40"  idxTwo="46"  coef=".1197"/><qTerm  idx="-1"  idxOne="41"  idxTwo="45"  coef="-1.5476"/><qTerm  idx="-1"  idxOne="42"  idxTwo="43"  coef="-1.4312"/><qTerm  idx="-1"  idxOne="42"  idxTwo="48"  coef="-.3835"/><qTerm  idx="-1"  idxOne="43"  idxTwo="44"  coef="1.0754"/><qTerm  idx="-1"  idxOne="44"  idxTwo="49"  coef="1.2547"/><qTerm  idx="-1"  idxOne="45"  idxTwo="48"  coef="1.8462"/><qTerm  idx="-1"  idxOne="47"  idxTwo="47"  coef=".3573"/></quadraticCoefficients></instanceData></osil>
